81
0 13 31 21 56 39 30 28 77 61 
45 67 29 26 14 23 4 62 57 6 
1 53 27 60 44 38 19 41 17 34 
24 40 16 50 33 32 15 76 78 7 
11 58 43 74 79 75 3 42 69 9 
22 10 5 73 48 68 20 70 12 71 
35 49 59 72 64 52 55 54 47 18 
2 51 25 65 66 63 80 8 37 46 
36 
